40
2 1 1
3 0 1
3 1 1
3 2 1
4 3 1
5 0 1
5 4 1
6 1 1
6 3 1
7 0 1
7 3 1
7 6 1
8 0 1
8 2 1
8 4 1
8 7 1
9 4 1
9 5 1
9 6 1
9 7 1
10 1 1
10 2 1
10 4 1
10 5 1
10 6 1
10 9 1
11 1 1
11 2 1
11 3 1
11 4 1
11 6 1
11 10 1
12 0 1
12 2 1
12 3 1
12 5 1
12 7 1
12 11 1
13 1 1
13 2 1
13 8 1
13 10 1
13 11 1
14 1 1
14 4 1
14 5 1
14 9 1
14 12 1
15 1 1
15 2 1
15 4 1
15 6 1
15 7 1
15 12 1
15 14 1
16 0 1
16 3 1
16 5 1
16 10 1
16 12 1
16 13 1
16 15 1
17 1 1
17 3 1
17 4 1
17 7 1
17 11 1
18 1 1
18 2 1
18 5 1
18 7 1
18 8 1
18 11 1
18 12 1
18 14 1
18 15 1
19 0 1
19 2 1
19 9 1
19 12 1
19 13 1
19 15 1
19 18 1
20 0 1
20 1 1
20 2 1
20 4 1
20 5 1
20 6 1
20 8 1
20 9 1
20 12 1
20 14 1
20 18 1
20 19 1
21 2 1
21 3 1
21 4 1
21 5 1
21 6 1
21 7 1
21 12 1
21 13 1
21 14 1
21 17 1
21 18 1
22 0 1
22 1 1
22 2 1
22 8 1
22 9 1
22 11 1
22 15 1
22 17 1
22 19 1
22 20 1
22 21 1
23 0 1
23 3 1
23 7 1
23 10 1
23 12 1
23 13 1
23 14 1
23 16 1
23 17 1
23 18 1
23 22 1
24 0 1
24 1 1
24 3 1
24 5 1
24 6 1
24 8 1
24 10 1
24 11 1
24 14 1
24 17 1
24 18 1
24 19 1
24 22 1
24 23 1
25 0 1
25 3 1
25 4 1
25 7 1
25 9 1
25 11 1
25 14 1
25 15 1
25 17 1
25 18 1
25 20 1
25 22 1
25 24 1
26 12 1
26 15 1
26 17 1
26 18 1
26 19 1
26 24 1
26 25 1
27 0 1
27 3 1
27 4 1
27 6 1
27 10 1
27 11 1
27 13 1
27 16 1
27 18 1
27 21 1
27 22 1
27 24 1
28 0 1
28 1 1
28 2 1
28 10 1
28 14 1
28 16 1
28 17 1
28 18 1
28 21 1
28 25 1
28 26 1
29 0 1
29 1 1
29 3 1
29 7 1
29 11 1
29 14 1
29 16 1
29 18 1
29 24 1
29 26 1
29 27 1
30 0 1
30 2 1
30 3 1
30 4 1
30 6 1
30 7 1
30 9 1
30 13 1
30 18 1
30 19 1
30 21 1
30 23 1
30 24 1
30 25 1
30 28 1
31 1 1
31 2 1
31 4 1
31 8 1
31 13 1
31 14 1
31 15 1
31 16 1
31 18 1
31 24 1
31 26 1
31 27 1
31 28 1
31 30 1
32 1 1
32 4 1
32 5 1
32 9 1
32 11 1
32 13 1
32 17 1
32 19 1
32 20 1
32 21 1
32 23 1
32 24 1
32 25 1
32 26 1
32 27 1
32 29 1
32 30 1
33 0 1
33 1 1
33 2 1
33 3 1
33 5 1
33 6 1
33 10 1
33 13 1
33 16 1
33 17 1
33 18 1
33 20 1
33 23 1
33 24 1
33 25 1
33 26 1
33 30 1
33 31 1
33 32 1
34 1 1
34 2 1
34 4 1
34 6 1
34 7 1
34 8 1
34 12 1
34 13 1
34 14 1
34 16 1
34 17 1
34 22 1
34 23 1
34 25 1
34 26 1
34 27 1
34 29 1
35 0 1
35 1 1
35 2 1
35 4 1
35 6 1
35 8 1
35 9 1
35 12 1
35 13 1
35 16 1
35 18 1
35 19 1
35 24 1
35 25 1
35 26 1
35 28 1
35 29 1
35 30 1
35 31 1
35 32 1
36 0 1
36 2 1
36 5 1
36 6 1
36 12 1
36 13 1
36 15 1
36 16 1
36 17 1
36 20 1
36 21 1
36 22 1
36 23 1
36 25 1
36 27 1
37 1 1
37 2 1
37 5 1
37 7 1
37 11 1
37 13 1
37 16 1
37 18 1
37 21 1
37 24 1
37 31 1
37 32 1
37 33 1
37 34 1
37 35 1
38 0 1
38 2 1
38 6 1
38 7 1
38 8 1
38 9 1
38 11 1
38 13 1
38 18 1
38 19 1
38 23 1
38 24 1
38 26 1
38 27 1
38 29 1
38 30 1
38 31 1
38 33 1
38 35 1
38 36 1
38 37 1
39 0 1
39 2 1
39 4 1
39 7 1
39 8 1
39 12 1
39 14 1
39 15 1
39 17 1
39 18 1
39 19 1
39 20 1
39 21 1
39 22 1
39 24 1
39 25 1
39 28 1
39 32 1
39 34 1
39 35 1
39 36 1
39 37 1
